(set-info :smt-lib-version 2.6)
(set-logic UF)
(set-info :source |Benchmarks from the paper: "Extending Sledgehammer with SMT Solvers" by Jasmin Blanchette, Sascha Bohme, and Lawrence C. Paulson, CADE 2011.  Translated to SMT2 by Andrew Reynolds and Morgan Deters.|)
(set-info :category "industrial")
(set-info :status unknown)
(declare-sort S1 0)
(declare-sort S2 0)
(declare-sort S3 0)
(declare-sort S4 0)
(declare-sort S5 0)
(declare-sort S6 0)
(declare-sort S7 0)
(declare-sort S8 0)
(declare-sort S9 0)
(declare-sort S10 0)
(declare-sort S11 0)
(declare-sort S12 0)
(declare-sort S13 0)
(declare-sort S14 0)
(declare-sort S15 0)
(declare-sort S16 0)
(declare-sort S17 0)
(declare-sort S18 0)
(declare-sort S19 0)
(declare-sort S20 0)
(declare-sort S21 0)
(declare-sort S22 0)
(declare-sort S23 0)
(declare-sort S24 0)
(declare-sort S25 0)
(declare-sort S26 0)
(declare-sort S27 0)
(declare-sort S28 0)
(declare-sort S29 0)
(declare-sort S30 0)
(declare-sort S31 0)
(declare-sort S32 0)
(declare-sort S33 0)
(declare-sort S34 0)
(declare-sort S35 0)
(declare-sort S36 0)
(declare-sort S37 0)
(declare-sort S38 0)
(declare-sort S39 0)
(declare-sort S40 0)
(declare-sort S41 0)
(declare-sort S42 0)
(declare-sort S43 0)
(declare-sort S44 0)
(declare-sort S45 0)
(declare-fun f1 () S1)
(declare-fun f2 () S1)
(declare-fun f3 (S3 S2) S4)
(declare-fun f4 () S3)
(declare-fun f5 (S5 S4) S4)
(declare-fun f6 (S6 S4) S5)
(declare-fun f7 () S6)
(declare-fun f8 (S7 S8) S4)
(declare-fun f9 (S9 S3) S7)
(declare-fun f10 () S9)
(declare-fun f11 (S10 S4) S3)
(declare-fun f12 () S10)
(declare-fun f13 (S2 S2) S1)
(declare-fun f14 () S2)
(declare-fun f15 () S3)
(declare-fun f16 () S2)
(declare-fun f17 (S11 S2) S2)
(declare-fun f18 (S12 S2) S11)
(declare-fun f19 () S12)
(declare-fun f20 () S6)
(declare-fun f21 () S4)
(declare-fun f22 (S2 S2) S8)
(declare-fun f23 () S2)
(declare-fun f24 () S3)
(declare-fun f25 () S3)
(declare-fun f26 () S3)
(declare-fun f27 (S13 S2) S3)
(declare-fun f28 (S14 S3) S13)
(declare-fun f29 () S14)
(declare-fun f30 () S12)
(declare-fun f31 () S12)
(declare-fun f32 (S15 S2) S16)
(declare-fun f33 (S17 S2) S15)
(declare-fun f34 (S18 S15) S17)
(declare-fun f35 () S18)
(declare-fun f36 (S19 S8) S16)
(declare-fun f37 (S20 S15) S19)
(declare-fun f38 () S20)
(declare-fun f39 (S21 S11) S12)
(declare-fun f40 () S21)
(declare-fun f41 (S22 S8) S2)
(declare-fun f42 (S23 S11) S22)
(declare-fun f43 () S23)
(declare-fun f44 (S24 S2) S25)
(declare-fun f45 (S26 S2) S24)
(declare-fun f46 (S27 S24) S26)
(declare-fun f47 () S27)
(declare-fun f48 (S28 S8) S25)
(declare-fun f49 (S29 S24) S28)
(declare-fun f50 () S29)
(declare-fun f51 () S14)
(declare-fun f52 () S18)
(declare-fun f53 () S21)
(declare-fun f54 () S27)
(declare-fun f55 (S30 S15) S15)
(declare-fun f56 (S31 S2) S30)
(declare-fun f57 () S31)
(declare-fun f58 (S32 S4) S13)
(declare-fun f59 (S33 S4) S32)
(declare-fun f60 () S33)
(declare-fun f61 () S6)
(declare-fun f62 () S6)
(declare-fun f63 (S34 S16) S17)
(declare-fun f64 (S35 S16) S34)
(declare-fun f65 () S35)
(declare-fun f66 (S36 S16) S16)
(declare-fun f67 (S37 S16) S36)
(declare-fun f68 () S37)
(declare-fun f69 () S37)
(declare-fun f70 (S38 S16) S15)
(declare-fun f71 () S38)
(declare-fun f72 () S37)
(declare-fun f73 (S39 S25) S26)
(declare-fun f74 (S40 S25) S39)
(declare-fun f75 () S40)
(declare-fun f76 (S41 S25) S25)
(declare-fun f77 (S42 S25) S41)
(declare-fun f78 () S42)
(declare-fun f79 () S42)
(declare-fun f80 (S43 S25) S24)
(declare-fun f81 () S43)
(declare-fun f82 () S42)
(declare-fun f83 () S33)
(declare-fun f84 () S35)
(declare-fun f85 () S40)
(declare-fun f86 (S2 S2) S1)
(declare-fun f87 () S16)
(declare-fun f88 () S37)
(declare-fun f89 () S12)
(declare-fun f90 () S2)
(declare-fun f91 () S25)
(declare-fun f92 () S16)
(declare-fun f93 () S25)
(declare-fun f94 () S4)
(declare-fun f95 (S8 S8) S8)
(declare-fun f96 (S16 S16) S1)
(declare-fun f97 (S44 S44) S44)
(declare-fun f98 (S16 S16) S44)
(declare-fun f99 (S25 S25) S1)
(declare-fun f100 (S45 S45) S45)
(declare-fun f101 (S25 S25) S45)
(declare-fun f102 (S8 S8) S1)
(declare-fun f103 (S44 S44) S1)
(declare-fun f104 (S45 S45) S1)
(declare-fun f105 (S16 S16) S1)
(declare-fun f106 (S25 S25) S1)
(assert (not (= f1 f2)))
(assert (forall ((?v0 S2)) (let ((?v_0 (f3 f15 f16))) (= (f3 f4 ?v0) (f5 (f6 f7 (f8 (f9 f10 (f11 f12 (ite (= (f13 f14 ?v0) f1) (f3 (f11 f12 ?v_0) (f17 (f18 f19 ?v0) f14)) (f3 (f11 f12 (f5 (f6 f20 f21) ?v_0)) (f17 (f18 f19 f14) ?v0))))) (f22 f23 f16))) (f3 f24 ?v0))))))
(assert (forall ((?v0 S2)) (= (f3 f25 ?v0) (f5 (f6 f7 (f8 (f9 f10 (f11 f12 (f3 (f11 f12 (f5 (f6 f20 f21) (f3 f15 f16))) (f17 (f18 f19 f14) ?v0)))) (f22 f23 f16))) (f3 f24 ?v0)))))
(assert (forall ((?v0 S2)) (= (f3 f26 ?v0) (f5 (f6 f7 (f8 (f9 f10 (f11 f12 (f3 (f11 f12 (f3 f15 f16)) (f17 (f18 f19 ?v0) f14)))) (f22 f23 f16))) (f3 f24 ?v0)))))
(assert (forall ((?v0 S3) (?v1 S2) (?v2 S2)) (let ((?v_0 (f17 (f18 f30 ?v2) ?v1))) (= (f3 (f27 (f28 f29 ?v0) ?v1) ?v2) (f8 (f9 f10 ?v0) (f22 ?v_0 (f17 (f18 f31 ?v_0) ?v1)))))))
(assert (forall ((?v0 S15) (?v1 S2) (?v2 S2)) (let ((?v_0 (f17 (f18 f30 ?v2) ?v1))) (= (f32 (f33 (f34 f35 ?v0) ?v1) ?v2) (f36 (f37 f38 ?v0) (f22 ?v_0 (f17 (f18 f31 ?v_0) ?v1)))))))
(assert (forall ((?v0 S11) (?v1 S2) (?v2 S2)) (let ((?v_0 (f17 (f18 f30 ?v2) ?v1))) (= (f17 (f18 (f39 f40 ?v0) ?v1) ?v2) (f41 (f42 f43 ?v0) (f22 ?v_0 (f17 (f18 f31 ?v_0) ?v1)))))))
(assert (forall ((?v0 S24) (?v1 S2) (?v2 S2)) (let ((?v_0 (f17 (f18 f30 ?v2) ?v1))) (= (f44 (f45 (f46 f47 ?v0) ?v1) ?v2) (f48 (f49 f50 ?v0) (f22 ?v_0 (f17 (f18 f31 ?v_0) ?v1)))))))
(assert (forall ((?v0 S3) (?v1 S2) (?v2 S2)) (= (f3 (f27 (f28 f51 ?v0) ?v1) ?v2) (f3 ?v0 (f17 (f18 f31 ?v2) ?v1)))))
(assert (forall ((?v0 S15) (?v1 S2) (?v2 S2)) (= (f32 (f33 (f34 f52 ?v0) ?v1) ?v2) (f32 ?v0 (f17 (f18 f31 ?v2) ?v1)))))
(assert (forall ((?v0 S11) (?v1 S2) (?v2 S2)) (= (f17 (f18 (f39 f53 ?v0) ?v1) ?v2) (f17 ?v0 (f17 (f18 f31 ?v2) ?v1)))))
(assert (forall ((?v0 S24) (?v1 S2) (?v2 S2)) (= (f44 (f45 (f46 f54 ?v0) ?v1) ?v2) (f44 ?v0 (f17 (f18 f31 ?v2) ?v1)))))
(assert (forall ((?v0 S2) (?v1 S15) (?v2 S2)) (= (f32 (f55 (f56 f57 ?v0) ?v1) ?v2) (f32 ?v1 (f17 (f18 f31 ?v2) ?v0)))))
(assert (forall ((?v0 S4) (?v1 S4) (?v2 S2) (?v3 S2)) (let ((?v_0 (f11 f12 ?v0))) (= (f3 (f27 (f58 (f59 f60 ?v0) ?v1) ?v2) ?v3) (f5 (f6 f61 (f5 (f6 f7 (f3 (f11 f12 (f5 (f6 f62 ?v0) ?v1)) (f17 (f18 f19 ?v2) ?v3))) (f3 ?v_0 ?v3))) (f3 ?v_0 ?v2))))))
(assert (forall ((?v0 S16) (?v1 S16) (?v2 S2) (?v3 S2)) (let ((?v_0 (f70 f71 ?v0))) (= (f32 (f33 (f63 (f64 f65 ?v0) ?v1) ?v2) ?v3) (f66 (f67 f68 (f66 (f67 f69 (f32 (f70 f71 (f66 (f67 f72 ?v0) ?v1)) (f17 (f18 f19 ?v2) ?v3))) (f32 ?v_0 ?v3))) (f32 ?v_0 ?v2))))))
(assert (forall ((?v0 S25) (?v1 S25) (?v2 S2) (?v3 S2)) (let ((?v_0 (f80 f81 ?v0))) (= (f44 (f45 (f73 (f74 f75 ?v0) ?v1) ?v2) ?v3) (f76 (f77 f78 (f76 (f77 f79 (f44 (f80 f81 (f76 (f77 f82 ?v0) ?v1)) (f17 (f18 f19 ?v2) ?v3))) (f44 ?v_0 ?v3))) (f44 ?v_0 ?v2))))))
(assert (forall ((?v0 S4) (?v1 S4) (?v2 S2) (?v3 S2)) (let ((?v_0 (f11 f12 ?v0)) (?v_1 (f17 (f18 f19 ?v2) ?v3))) (= (f3 (f27 (f58 (f59 f83 ?v0) ?v1) ?v2) ?v3) (f5 (f6 f7 (f3 ?v_0 ?v3)) (f5 (f6 f61 (f3 (f11 f12 (f5 (f6 f62 ?v0) ?v1)) ?v_1)) (f3 ?v_0 ?v_1)))))))
(assert (forall ((?v0 S16) (?v1 S16) (?v2 S2) (?v3 S2)) (let ((?v_0 (f70 f71 ?v0)) (?v_1 (f17 (f18 f19 ?v2) ?v3))) (= (f32 (f33 (f63 (f64 f84 ?v0) ?v1) ?v2) ?v3) (f66 (f67 f69 (f32 ?v_0 ?v3)) (f66 (f67 f68 (f32 (f70 f71 (f66 (f67 f72 ?v0) ?v1)) ?v_1)) (f32 ?v_0 ?v_1)))))))
(assert (forall ((?v0 S25) (?v1 S25) (?v2 S2) (?v3 S2)) (let ((?v_0 (f80 f81 ?v0)) (?v_1 (f17 (f18 f19 ?v2) ?v3))) (= (f44 (f45 (f73 (f74 f85 ?v0) ?v1) ?v2) ?v3) (f76 (f77 f79 (f44 ?v_0 ?v3)) (f76 (f77 f78 (f44 (f80 f81 (f76 (f77 f82 ?v0) ?v1)) ?v_1)) (f44 ?v_0 ?v_1)))))))
(assert (let ((?v_0 (f8 (f9 f10 f26) (f22 f14 f16)))) (not (= (f5 (f6 f62 (f8 (f9 f10 f25) (f22 f23 f14))) ?v_0) ?v_0))))
(assert (= (f86 f14 f16) f1))
(assert (forall ((?v0 S2)) (= (f86 (f17 (f18 f19 f14) ?v0) f16) f1)))
(assert (= (f86 f14 f16) f1))
(assert (forall ((?v0 S2)) (= (f86 (f17 (f18 f19 f14) ?v0) f16) f1)))
(assert (forall ((?v0 S2)) (=> (= (f86 ?v0 f16) f1) (= (f86 (f17 (f18 f19 ?v0) f14) f16) f1))))
(assert (= (f3 f15 f23) f21))
(assert (forall ((?v0 S2)) (= (f3 (f11 f12 (f3 f15 ?v0)) ?v0) f21)))
(assert (= (f8 (f9 f10 f4) (f22 f23 f16)) (f5 (f6 f62 (f8 (f9 f10 f25) (f22 f23 f14))) (f8 (f9 f10 f26) (f22 f14 f16)))))
(assert (forall ((?v0 S16) (?v1 S16) (?v2 S2)) (let ((?v_0 (f22 f23 ?v2))) (= (f36 (f37 f38 (f33 (f63 (f64 f65 ?v0) ?v1) ?v2)) ?v_0) (f36 (f37 f38 (f33 (f63 (f64 f84 ?v0) ?v1) ?v2)) ?v_0)))))
(assert (forall ((?v0 S4) (?v1 S4) (?v2 S2)) (let ((?v_0 (f22 f23 ?v2))) (= (f8 (f9 f10 (f27 (f58 (f59 f60 ?v0) ?v1) ?v2)) ?v_0) (f8 (f9 f10 (f27 (f58 (f59 f83 ?v0) ?v1) ?v2)) ?v_0)))))
(assert (forall ((?v0 S25) (?v1 S25) (?v2 S2)) (let ((?v_0 (f22 f23 ?v2))) (= (f48 (f49 f50 (f45 (f73 (f74 f75 ?v0) ?v1) ?v2)) ?v_0) (f48 (f49 f50 (f45 (f73 (f74 f85 ?v0) ?v1) ?v2)) ?v_0)))))
(assert (forall ((?v0 S16) (?v1 S2)) (let ((?v_0 (f70 f71 ?v0))) (=> (not (= ?v0 f87)) (= (f36 (f37 f38 ?v_0) (f22 f23 ?v1)) (f66 (f67 f88 (f66 (f67 f68 (f32 ?v_0 ?v1)) f87)) (f66 (f67 f68 ?v0) f87)))))))
(assert (forall ((?v0 S4) (?v1 S2)) (let ((?v_0 (f11 f12 ?v0))) (=> (not (= ?v0 f21)) (= (f8 (f9 f10 ?v_0) (f22 f23 ?v1)) (f5 (f6 f20 (f5 (f6 f61 (f3 ?v_0 ?v1)) f21)) (f5 (f6 f61 ?v0) f21)))))))
(assert (forall ((?v0 S2) (?v1 S2)) (let ((?v_0 (f18 f89 ?v0))) (= (f17 ?v_0 ?v1) (ite (= ?v1 f23) f90 (f17 (f18 f30 ?v0) (f17 ?v_0 (f17 (f18 f19 ?v1) f90))))))))
(assert (forall ((?v0 S16) (?v1 S2)) (let ((?v_0 (f70 f71 ?v0))) (= (f32 ?v_0 ?v1) (ite (= ?v1 f23) f87 (f66 (f67 f69 ?v0) (f32 ?v_0 (f17 (f18 f19 ?v1) f90))))))))
(assert (forall ((?v0 S25) (?v1 S2)) (let ((?v_0 (f80 f81 ?v0))) (= (f44 ?v_0 ?v1) (ite (= ?v1 f23) f91 (f76 (f77 f79 ?v0) (f44 ?v_0 (f17 (f18 f19 ?v1) f90))))))))
(assert (forall ((?v0 S4) (?v1 S2)) (let ((?v_0 (f11 f12 ?v0))) (= (f3 ?v_0 ?v1) (ite (= ?v1 f23) f21 (f5 (f6 f7 ?v0) (f3 ?v_0 (f17 (f18 f19 ?v1) f90))))))))
(assert (forall ((?v0 S15) (?v1 S2) (?v2 S2)) (let ((?v_0 (f37 f38 ?v0))) (= (f36 ?v_0 (f22 f23 (f17 (f18 f31 ?v1) ?v2))) (f66 (f67 f72 (f36 (f37 f38 (f33 (f34 f52 ?v0) ?v2)) (f22 f23 ?v1))) (f36 ?v_0 (f22 f23 ?v2)))))))
(assert (forall ((?v0 S11) (?v1 S2) (?v2 S2)) (let ((?v_0 (f42 f43 ?v0))) (= (f41 ?v_0 (f22 f23 (f17 (f18 f31 ?v1) ?v2))) (f17 (f18 f31 (f41 (f42 f43 (f18 (f39 f53 ?v0) ?v2)) (f22 f23 ?v1))) (f41 ?v_0 (f22 f23 ?v2)))))))
(assert (forall ((?v0 S3) (?v1 S2) (?v2 S2)) (let ((?v_0 (f9 f10 ?v0))) (= (f8 ?v_0 (f22 f23 (f17 (f18 f31 ?v1) ?v2))) (f5 (f6 f62 (f8 (f9 f10 (f27 (f28 f51 ?v0) ?v2)) (f22 f23 ?v1))) (f8 ?v_0 (f22 f23 ?v2)))))))
(assert (forall ((?v0 S24) (?v1 S2) (?v2 S2)) (let ((?v_0 (f49 f50 ?v0))) (= (f48 ?v_0 (f22 f23 (f17 (f18 f31 ?v1) ?v2))) (f76 (f77 f82 (f48 (f49 f50 (f45 (f46 f54 ?v0) ?v2)) (f22 f23 ?v1))) (f48 ?v_0 (f22 f23 ?v2)))))))
(assert (forall ((?v0 S16) (?v1 S16) (?v2 S16) (?v3 S16) (?v4 S16)) (let ((?v_0 (f67 f69 ?v0))) (= (f66 (f67 f88 (f66 (f67 f68 (f66 ?v_0 ?v1)) (f66 (f67 f69 ?v2) ?v3))) ?v4) (f66 (f67 f72 (f66 ?v_0 (f66 (f67 f88 (f66 (f67 f68 ?v1) ?v3)) ?v4))) (f66 (f67 f69 (f66 (f67 f88 (f66 (f67 f68 ?v0) ?v2)) ?v4)) ?v3))))))
(assert (forall ((?v0 S4) (?v1 S4) (?v2 S4) (?v3 S4) (?v4 S4)) (let ((?v_0 (f6 f7 ?v0))) (= (f5 (f6 f20 (f5 (f6 f61 (f5 ?v_0 ?v1)) (f5 (f6 f7 ?v2) ?v3))) ?v4) (f5 (f6 f62 (f5 ?v_0 (f5 (f6 f20 (f5 (f6 f61 ?v1) ?v3)) ?v4))) (f5 (f6 f7 (f5 (f6 f20 (f5 (f6 f61 ?v0) ?v2)) ?v4)) ?v3))))))
(assert (forall ((?v0 S2)) (= (f17 (f18 f89 f23) ?v0) (ite (= ?v0 f23) f90 f23))))
(assert (forall ((?v0 S2)) (= (f32 (f70 f71 f92) ?v0) (ite (= ?v0 f23) f87 f92))))
(assert (forall ((?v0 S2)) (= (f44 (f80 f81 f93) ?v0) (ite (= ?v0 f23) f91 f93))))
(assert (forall ((?v0 S2)) (= (f3 (f11 f12 f94) ?v0) (ite (= ?v0 f23) f21 f94))))
(assert (forall ((?v0 S4) (?v1 S4) (?v2 S4)) (=> (not (= ?v0 f94)) (= (f5 (f6 f61 ?v1) (f5 (f6 f20 ?v2) ?v0)) (f5 (f6 f20 (f5 (f6 f61 (f5 (f6 f7 ?v0) ?v1)) ?v2)) ?v0)))))
(assert (forall ((?v0 S16) (?v1 S16) (?v2 S16)) (=> (not (= ?v0 f92)) (= (f66 (f67 f68 ?v1) (f66 (f67 f88 ?v2) ?v0)) (f66 (f67 f88 (f66 (f67 f68 (f66 (f67 f69 ?v0) ?v1)) ?v2)) ?v0)))))
(assert (forall ((?v0 S4) (?v1 S4) (?v2 S4)) (=> (not (= ?v0 f94)) (= (f5 (f6 f61 (f5 (f6 f20 ?v1) ?v0)) ?v2) (f5 (f6 f20 (f5 (f6 f61 ?v1) (f5 (f6 f7 ?v0) ?v2))) ?v0)))))
(assert (forall ((?v0 S16) (?v1 S16) (?v2 S16)) (=> (not (= ?v0 f92)) (= (f66 (f67 f68 (f66 (f67 f88 ?v1) ?v0)) ?v2) (f66 (f67 f88 (f66 (f67 f68 ?v1) (f66 (f67 f69 ?v0) ?v2))) ?v0)))))
(assert (forall ((?v0 S4) (?v1 S4) (?v2 S4) (?v3 S4)) (=> (not (= ?v0 f94)) (=> (not (= ?v1 f94)) (= (f5 (f6 f61 (f5 (f6 f20 ?v2) ?v0)) (f5 (f6 f20 ?v3) ?v1)) (f5 (f6 f20 (f5 (f6 f61 (f5 (f6 f7 ?v2) ?v1)) (f5 (f6 f7 ?v3) ?v0))) (f5 (f6 f7 ?v0) ?v1)))))))
(assert (forall ((?v0 S16) (?v1 S16) (?v2 S16) (?v3 S16)) (=> (not (= ?v0 f92)) (=> (not (= ?v1 f92)) (= (f66 (f67 f68 (f66 (f67 f88 ?v2) ?v0)) (f66 (f67 f88 ?v3) ?v1)) (f66 (f67 f88 (f66 (f67 f68 (f66 (f67 f69 ?v2) ?v1)) (f66 (f67 f69 ?v3) ?v0))) (f66 (f67 f69 ?v0) ?v1)))))))
(assert (forall ((?v0 S16)) (= (f66 (f67 f68 (f66 (f67 f69 ?v0) ?v0)) f87) (f66 (f67 f69 (f66 (f67 f72 ?v0) f87)) (f66 (f67 f68 ?v0) f87)))))
(assert (forall ((?v0 S25)) (= (f76 (f77 f78 (f76 (f77 f79 ?v0) ?v0)) f91) (f76 (f77 f79 (f76 (f77 f82 ?v0) f91)) (f76 (f77 f78 ?v0) f91)))))
(assert (forall ((?v0 S4)) (= (f5 (f6 f61 (f5 (f6 f7 ?v0) ?v0)) f21) (f5 (f6 f7 (f5 (f6 f62 ?v0) f21)) (f5 (f6 f61 ?v0) f21)))))
(assert (forall ((?v0 S16) (?v1 S16) (?v2 S16)) (=> (not (= ?v0 f92)) (= (f66 (f67 f72 ?v1) (f66 (f67 f88 ?v2) ?v0)) (f66 (f67 f88 (f66 (f67 f72 ?v2) (f66 (f67 f69 ?v1) ?v0))) ?v0)))))
(assert (forall ((?v0 S4) (?v1 S4) (?v2 S4)) (=> (not (= ?v0 f94)) (= (f5 (f6 f62 ?v1) (f5 (f6 f20 ?v2) ?v0)) (f5 (f6 f20 (f5 (f6 f62 ?v2) (f5 (f6 f7 ?v1) ?v0))) ?v0)))))
(assert (forall ((?v0 S2) (?v1 S2)) (= (= (f13 ?v0 ?v1) f1) (exists ((?v2 S2)) (= ?v1 (f17 (f18 f31 ?v0) ?v2))))))
(assert (forall ((?v0 S16) (?v1 S2)) (let ((?v_0 (f70 f71 ?v0))) (=> (not (= ?v0 f87)) (= (f36 (f37 f38 ?v_0) (f22 f23 ?v1)) (f66 (f67 f88 (f66 (f67 f68 (f32 ?v_0 ?v1)) f87)) (f66 (f67 f68 ?v0) f87)))))))
(assert (forall ((?v0 S2) (?v1 S2) (?v2 S2)) (=> (= (f13 ?v0 ?v1) f1) (= (f95 (f22 ?v0 ?v2) (f22 ?v0 ?v1)) (f22 ?v1 ?v2)))))
(assert (forall ((?v0 S16) (?v1 S16) (?v2 S16)) (=> (= (f96 ?v0 ?v1) f1) (= (f97 (f98 ?v0 ?v2) (f98 ?v0 ?v1)) (f98 ?v1 ?v2)))))
(assert (forall ((?v0 S25) (?v1 S25) (?v2 S25)) (=> (= (f99 ?v0 ?v1) f1) (= (f100 (f101 ?v0 ?v2) (f101 ?v0 ?v1)) (f101 ?v1 ?v2)))))
(assert (forall ((?v0 S2) (?v1 S2) (?v2 S2) (?v3 S2)) (=> (= (f102 (f22 ?v0 ?v1) (f22 ?v2 ?v3)) f1) (or (= (f13 ?v1 ?v0) f1) (and (= (f13 ?v2 ?v0) f1) (= (f13 ?v1 ?v3) f1))))))
(assert (forall ((?v0 S16) (?v1 S16) (?v2 S16) (?v3 S16)) (=> (= (f103 (f98 ?v0 ?v1) (f98 ?v2 ?v3)) f1) (or (= (f96 ?v1 ?v0) f1) (and (= (f96 ?v2 ?v0) f1) (= (f96 ?v1 ?v3) f1))))))
(assert (forall ((?v0 S25) (?v1 S25) (?v2 S25) (?v3 S25)) (=> (= (f104 (f101 ?v0 ?v1) (f101 ?v2 ?v3)) f1) (or (= (f99 ?v1 ?v0) f1) (and (= (f99 ?v2 ?v0) f1) (= (f99 ?v1 ?v3) f1))))))
(assert (forall ((?v0 S2) (?v1 S2) (?v2 S2)) (let ((?v_0 (f18 f89 ?v0))) (=> (= (f86 f23 ?v0) f1) (=> (= (f86 (f17 ?v_0 ?v1) (f17 ?v_0 ?v2)) f1) (= (f86 ?v1 ?v2) f1))))))
(assert (forall ((?v0 S2) (?v1 S2)) (= (= (f86 f23 (f17 (f18 f89 ?v0) ?v1)) f1) (or (= (f86 f23 ?v0) f1) (= ?v1 f23)))))
(assert (forall ((?v0 S2) (?v1 S2) (?v2 S15)) (let ((?v_0 (f37 f38 ?v2))) (= (f36 (f37 f38 (f55 (f56 f57 ?v0) ?v2)) (f22 f23 ?v1)) (f66 (f67 f68 (f36 ?v_0 (f22 f23 (f17 (f18 f31 ?v1) ?v0)))) (f36 ?v_0 (f22 f23 ?v0)))))))
(assert (forall ((?v0 S2) (?v1 S2) (?v2 S15)) (let ((?v_0 (f37 f38 ?v2))) (= (f36 ?v_0 (f22 f23 (f17 (f18 f31 ?v1) ?v0))) (f66 (f67 f72 (f36 (f37 f38 (f55 (f56 f57 ?v0) ?v2)) (f22 f23 ?v1))) (f36 ?v_0 (f22 f23 ?v0)))))))
(assert (forall ((?v0 S2) (?v1 S2) (?v2 S2)) (let ((?v_0 (f18 f89 ?v0))) (= (f17 ?v_0 (f17 (f18 f30 ?v1) ?v2)) (f17 (f18 f89 (f17 ?v_0 ?v1)) ?v2)))))
(assert (forall ((?v0 S16) (?v1 S2) (?v2 S2)) (let ((?v_0 (f70 f71 ?v0))) (= (f32 ?v_0 (f17 (f18 f30 ?v1) ?v2)) (f32 (f70 f71 (f32 ?v_0 ?v1)) ?v2)))))
(assert (forall ((?v0 S4) (?v1 S2) (?v2 S2)) (let ((?v_0 (f11 f12 ?v0))) (= (f3 ?v_0 (f17 (f18 f30 ?v1) ?v2)) (f3 (f11 f12 (f3 ?v_0 ?v1)) ?v2)))))
(assert (forall ((?v0 S25) (?v1 S2) (?v2 S2)) (let ((?v_0 (f80 f81 ?v0))) (= (f44 ?v_0 (f17 (f18 f30 ?v1) ?v2)) (f44 (f80 f81 (f44 ?v_0 ?v1)) ?v2)))))
(assert (forall ((?v0 S2) (?v1 S2) (?v2 S2)) (let ((?v_0 (f18 f89 ?v0))) (=> (= (f86 f90 ?v0) f1) (=> (= (f13 (f17 ?v_0 ?v1) (f17 ?v_0 ?v2)) f1) (= (f13 ?v1 ?v2) f1))))))
(assert (forall ((?v0 S16) (?v1 S2) (?v2 S2)) (let ((?v_0 (f70 f71 ?v0))) (=> (= (f105 f87 ?v0) f1) (=> (= (f96 (f32 ?v_0 ?v1) (f32 ?v_0 ?v2)) f1) (= (f13 ?v1 ?v2) f1))))))
(assert (forall ((?v0 S25) (?v1 S2) (?v2 S2)) (let ((?v_0 (f80 f81 ?v0))) (=> (= (f106 f91 ?v0) f1) (=> (= (f99 (f44 ?v_0 ?v1) (f44 ?v_0 ?v2)) f1) (= (f13 ?v1 ?v2) f1))))))
(assert (forall ((?v0 S2) (?v1 S2) (?v2 S2)) (let ((?v_0 (f18 f89 ?v0))) (=> (= (f86 f90 ?v0) f1) (= (= (f13 (f17 ?v_0 ?v1) (f17 ?v_0 ?v2)) f1) (= (f13 ?v1 ?v2) f1))))))
(assert (forall ((?v0 S16) (?v1 S2) (?v2 S2)) (let ((?v_0 (f70 f71 ?v0))) (=> (= (f105 f87 ?v0) f1) (= (= (f96 (f32 ?v_0 ?v1) (f32 ?v_0 ?v2)) f1) (= (f13 ?v1 ?v2) f1))))))
(assert (forall ((?v0 S25) (?v1 S2) (?v2 S2)) (let ((?v_0 (f80 f81 ?v0))) (=> (= (f106 f91 ?v0) f1) (= (= (f99 (f44 ?v_0 ?v1) (f44 ?v_0 ?v2)) f1) (= (f13 ?v1 ?v2) f1))))))
(assert (forall ((?v0 S2)) (= (f17 (f18 f89 ?v0) f90) ?v0)))
(assert (forall ((?v0 S16)) (= (f32 (f70 f71 ?v0) f90) ?v0)))
(assert (forall ((?v0 S4)) (= (f3 (f11 f12 ?v0) f90) ?v0)))
(assert (forall ((?v0 S25)) (= (f44 (f80 f81 ?v0) f90) ?v0)))
(assert (forall ((?v0 S2) (?v1 S2) (?v2 S2)) (let ((?v_0 (f18 f89 ?v2))) (=> (= (f13 ?v0 ?v1) f1) (=> (= (f13 f90 ?v2) f1) (= (f13 (f17 ?v_0 ?v0) (f17 ?v_0 ?v1)) f1))))))
(assert (forall ((?v0 S2) (?v1 S2) (?v2 S16)) (let ((?v_0 (f70 f71 ?v2))) (=> (= (f13 ?v0 ?v1) f1) (=> (= (f96 f87 ?v2) f1) (= (f96 (f32 ?v_0 ?v0) (f32 ?v_0 ?v1)) f1))))))
(assert (forall ((?v0 S2) (?v1 S2) (?v2 S25)) (let ((?v_0 (f80 f81 ?v2))) (=> (= (f13 ?v0 ?v1) f1) (=> (= (f99 f91 ?v2) f1) (= (f99 (f44 ?v_0 ?v0) (f44 ?v_0 ?v1)) f1))))))
(assert (forall ((?v0 S25) (?v1 S2) (?v2 S25)) (=> (= (f106 (f44 (f80 f81 ?v0) ?v1) (f44 (f80 f81 ?v2) ?v1)) f1) (=> (= (f99 f93 ?v2) f1) (= (f106 ?v0 ?v2) f1)))))
(assert (forall ((?v0 S2) (?v1 S2) (?v2 S2)) (=> (= (f86 (f17 (f18 f89 ?v0) ?v1) (f17 (f18 f89 ?v2) ?v1)) f1) (=> (= (f13 f23 ?v2) f1) (= (f86 ?v0 ?v2) f1)))))
(assert (forall ((?v0 S16) (?v1 S2) (?v2 S16)) (=> (= (f105 (f32 (f70 f71 ?v0) ?v1) (f32 (f70 f71 ?v2) ?v1)) f1) (=> (= (f96 f92 ?v2) f1) (= (f105 ?v0 ?v2) f1)))))
(assert (forall ((?v0 S16) (?v1 S16)) (=> (= (f96 ?v0 f92) f1) (=> (= (f105 ?v1 f92) f1) (= (f96 f92 (f66 (f67 f88 ?v0) ?v1)) f1)))))
(assert (forall ((?v0 S16) (?v1 S16)) (=> (= (f96 ?v0 f92) f1) (=> (= (f105 f92 ?v1) f1) (= (f96 (f66 (f67 f88 ?v0) ?v1) f92) f1)))))
(assert (forall ((?v0 S16) (?v1 S16) (?v2 S16) (?v3 S16)) (=> (= (f96 f92 ?v0) f1) (=> (= (f96 ?v0 ?v1) f1) (=> (= (f105 f92 ?v2) f1) (=> (= (f96 ?v2 ?v3) f1) (= (f96 (f66 (f67 f88 ?v0) ?v3) (f66 (f67 f88 ?v1) ?v2)) f1)))))))
(assert (forall ((?v0 S16) (?v1 S16) (?v2 S16) (?v3 S16)) (=> (= (f96 f92 ?v0) f1) (=> (= (f105 ?v0 ?v1) f1) (=> (= (f105 f92 ?v2) f1) (=> (= (f96 ?v2 ?v3) f1) (= (f105 (f66 (f67 f88 ?v0) ?v3) (f66 (f67 f88 ?v1) ?v2)) f1)))))))
(assert (forall ((?v0 S16) (?v1 S16) (?v2 S16) (?v3 S16)) (=> (= (f105 f92 ?v0) f1) (=> (= (f96 ?v0 ?v1) f1) (=> (= (f105 f92 ?v2) f1) (=> (= (f105 ?v2 ?v3) f1) (= (f105 (f66 (f67 f88 ?v0) ?v3) (f66 (f67 f88 ?v1) ?v2)) f1)))))))
(assert (forall ((?v0 S16) (?v1 S16)) (=> (= (f96 f92 ?v0) f1) (=> (= (f105 ?v1 f92) f1) (= (f96 (f66 (f67 f88 ?v0) ?v1) f92) f1)))))
(assert (forall ((?v0 S16) (?v1 S16)) (=> (= (f96 f92 ?v0) f1) (=> (= (f105 f92 ?v1) f1) (= (f96 f92 (f66 (f67 f88 ?v0) ?v1)) f1)))))
(assert (forall ((?v0 S16) (?v1 S16) (?v2 S16)) (= (= (f96 (f66 (f67 f88 ?v0) ?v1) (f66 (f67 f88 ?v2) ?v1)) f1) (and (=> (= (f105 f92 ?v1) f1) (= (f96 ?v0 ?v2) f1)) (=> (= (f105 ?v1 f92) f1) (= (f96 ?v2 ?v0) f1))))))
(assert (forall ((?v0 S2) (?v1 S2) (?v2 S2)) (let ((?v_0 (f18 f89 ?v2))) (=> (= (f13 ?v0 ?v1) f1) (=> (= (f13 f23 ?v2) f1) (=> (= (f13 ?v2 f90) f1) (= (f13 (f17 ?v_0 ?v1) (f17 ?v_0 ?v0)) f1)))))))
(assert (forall ((?v0 S2) (?v1 S2) (?v2 S16)) (let ((?v_0 (f70 f71 ?v2))) (=> (= (f13 ?v0 ?v1) f1) (=> (= (f96 f92 ?v2) f1) (=> (= (f96 ?v2 f87) f1) (= (f96 (f32 ?v_0 ?v1) (f32 ?v_0 ?v0)) f1)))))))
(assert (forall ((?v0 S2) (?v1 S2) (?v2 S25)) (let ((?v_0 (f80 f81 ?v2))) (=> (= (f13 ?v0 ?v1) f1) (=> (= (f99 f93 ?v2) f1) (=> (= (f99 ?v2 f91) f1) (= (f99 (f44 ?v_0 ?v1) (f44 ?v_0 ?v0)) f1)))))))
(assert (forall ((?v0 S25) (?v1 S25) (?v2 S2)) (=> (= (f99 ?v0 ?v1) f1) (=> (= (f99 f93 ?v0) f1) (= (f99 (f44 (f80 f81 ?v0) ?v2) (f44 (f80 f81 ?v1) ?v2)) f1)))))
(assert (forall ((?v0 S2) (?v1 S2) (?v2 S2)) (=> (= (f13 ?v0 ?v1) f1) (=> (= (f13 f23 ?v0) f1) (= (f13 (f17 (f18 f89 ?v0) ?v2) (f17 (f18 f89 ?v1) ?v2)) f1)))))
(assert (forall ((?v0 S16) (?v1 S16) (?v2 S2)) (=> (= (f96 ?v0 ?v1) f1) (=> (= (f96 f92 ?v0) f1) (= (f96 (f32 (f70 f71 ?v0) ?v2) (f32 (f70 f71 ?v1) ?v2)) f1)))))
(assert (forall ((?v0 S25) (?v1 S2)) (=> (= (f99 f93 ?v0) f1) (= (f99 f93 (f44 (f80 f81 ?v0) ?v1)) f1))))
(assert (forall ((?v0 S2) (?v1 S2)) (=> (= (f13 f23 ?v0) f1) (= (f13 f23 (f17 (f18 f89 ?v0) ?v1)) f1))))
(assert (forall ((?v0 S16) (?v1 S2)) (=> (= (f96 f92 ?v0) f1) (= (f96 f92 (f32 (f70 f71 ?v0) ?v1)) f1))))
(assert (forall ((?v0 S16) (?v1 S16) (?v2 S16)) (=> (= (f96 ?v0 ?v1) f1) (=> (= (f96 ?v2 f92) f1) (= (f96 (f66 (f67 f88 ?v1) ?v2) (f66 (f67 f88 ?v0) ?v2)) f1)))))
(assert (forall ((?v0 S16) (?v1 S16) (?v2 S16)) (=> (= (f96 ?v0 ?v1) f1) (=> (= (f96 f92 ?v2) f1) (= (f96 (f66 (f67 f88 ?v0) ?v2) (f66 (f67 f88 ?v1) ?v2)) f1)))))
(assert (forall ((?v0 S16) (?v1 S16)) (= (= (f96 (f66 (f67 f88 ?v0) ?v1) f92) f1) (or (and (= (f96 f92 ?v0) f1) (= (f96 ?v1 f92) f1)) (and (= (f96 ?v0 f92) f1) (= (f96 f92 ?v1) f1))))))
(assert (forall ((?v0 S16) (?v1 S16)) (= (= (f96 f92 (f66 (f67 f88 ?v0) ?v1)) f1) (or (and (= (f96 f92 ?v0) f1) (= (f96 f92 ?v1) f1)) (and (= (f96 ?v0 f92) f1) (= (f96 ?v1 f92) f1))))))
(assert (forall ((?v0 S2) (?v1 S2) (?v2 S2)) (let ((?v_0 (f18 f89 ?v0))) (= (f17 ?v_0 (f17 (f18 f31 ?v1) ?v2)) (f17 (f18 f30 (f17 ?v_0 ?v1)) (f17 ?v_0 ?v2))))))
(assert (forall ((?v0 S16) (?v1 S2) (?v2 S2)) (let ((?v_0 (f70 f71 ?v0))) (= (f32 ?v_0 (f17 (f18 f31 ?v1) ?v2)) (f66 (f67 f69 (f32 ?v_0 ?v1)) (f32 ?v_0 ?v2))))))
(assert (forall ((?v0 S4) (?v1 S2) (?v2 S2)) (let ((?v_0 (f11 f12 ?v0))) (= (f3 ?v_0 (f17 (f18 f31 ?v1) ?v2)) (f5 (f6 f7 (f3 ?v_0 ?v1)) (f3 ?v_0 ?v2))))))
(assert (forall ((?v0 S25) (?v1 S2) (?v2 S2)) (let ((?v_0 (f80 f81 ?v0))) (= (f44 ?v_0 (f17 (f18 f31 ?v1) ?v2)) (f76 (f77 f79 (f44 ?v_0 ?v1)) (f44 ?v_0 ?v2))))))
(assert (forall ((?v0 S15) (?v1 S2) (?v2 S2)) (= (f36 (f37 f38 (f33 (f34 f35 ?v0) ?v1)) (f22 f23 ?v2)) (f36 (f37 f38 ?v0) (f22 f23 (f17 (f18 f30 ?v2) ?v1))))))
(assert (forall ((?v0 S3) (?v1 S2) (?v2 S2)) (= (f8 (f9 f10 (f27 (f28 f29 ?v0) ?v1)) (f22 f23 ?v2)) (f8 (f9 f10 ?v0) (f22 f23 (f17 (f18 f30 ?v2) ?v1))))))
(assert (forall ((?v0 S24) (?v1 S2) (?v2 S2)) (= (f48 (f49 f50 (f45 (f46 f47 ?v0) ?v1)) (f22 f23 ?v2)) (f48 (f49 f50 ?v0) (f22 f23 (f17 (f18 f30 ?v2) ?v1))))))
(assert (forall ((?v0 S11) (?v1 S2) (?v2 S2)) (= (f41 (f42 f43 (f18 (f39 f40 ?v0) ?v1)) (f22 f23 ?v2)) (f41 (f42 f43 ?v0) (f22 f23 (f17 (f18 f30 ?v2) ?v1))))))
(assert (forall ((?v0 S2) (?v1 S2)) (=> (= (f13 f90 ?v0) f1) (= (f13 f90 (f17 (f18 f89 ?v0) ?v1)) f1))))
(assert (forall ((?v0 S16) (?v1 S2)) (=> (= (f96 f87 ?v0) f1) (= (f96 f87 (f32 (f70 f71 ?v0) ?v1)) f1))))
(assert (forall ((?v0 S25) (?v1 S2)) (=> (= (f99 f91 ?v0) f1) (= (f99 f91 (f44 (f80 f81 ?v0) ?v1)) f1))))
(assert (forall ((?v0 S25) (?v1 S25) (?v2 S2)) (=> (= (f106 ?v0 ?v1) f1) (=> (= (f99 f93 ?v0) f1) (=> (= (f86 f23 ?v2) f1) (= (f106 (f44 (f80 f81 ?v0) ?v2) (f44 (f80 f81 ?v1) ?v2)) f1))))))
(assert (forall ((?v0 S2) (?v1 S2) (?v2 S2)) (=> (= (f86 ?v0 ?v1) f1) (=> (= (f13 f23 ?v0) f1) (=> (= (f86 f23 ?v2) f1) (= (f86 (f17 (f18 f89 ?v0) ?v2) (f17 (f18 f89 ?v1) ?v2)) f1))))))
(assert (forall ((?v0 S16) (?v1 S16) (?v2 S2)) (=> (= (f105 ?v0 ?v1) f1) (=> (= (f96 f92 ?v0) f1) (=> (= (f86 f23 ?v2) f1) (= (f105 (f32 (f70 f71 ?v0) ?v2) (f32 (f70 f71 ?v1) ?v2)) f1))))))
(assert (forall ((?v0 S2)) (not (= (f3 f15 ?v0) f94))))
(assert (forall ((?v0 S16) (?v1 S16) (?v2 S16)) (let ((?v_0 (f67 f88 ?v2))) (=> (= (f96 ?v0 ?v1) f1) (=> (= (f96 ?v2 f92) f1) (=> (= (f105 f92 (f66 (f67 f69 ?v0) ?v1)) f1) (= (f96 (f66 ?v_0 ?v0) (f66 ?v_0 ?v1)) f1)))))))
(assert (forall ((?v0 S16) (?v1 S16) (?v2 S16)) (let ((?v_0 (f67 f88 ?v2))) (=> (= (f96 ?v0 ?v1) f1) (=> (= (f96 f92 ?v2) f1) (=> (= (f105 f92 (f66 (f67 f69 ?v1) ?v0)) f1) (= (f96 (f66 ?v_0 ?v1) (f66 ?v_0 ?v0)) f1)))))))
(assert (forall ((?v0 S16) (?v1 S16) (?v2 S16)) (=> (= (f105 ?v0 f92) f1) (= (= (f96 (f66 (f67 f88 ?v1) ?v0) ?v2) f1) (= (f96 (f66 (f67 f69 ?v2) ?v0) ?v1) f1)))))
(assert (forall ((?v0 S16) (?v1 S16) (?v2 S16)) (=> (= (f105 ?v0 f92) f1) (= (= (f96 ?v1 (f66 (f67 f88 ?v2) ?v0)) f1) (= (f96 ?v2 (f66 (f67 f69 ?v1) ?v0)) f1)))))
(assert (forall ((?v0 S16) (?v1 S16) (?v2 S16)) (=> (= (f105 f92 ?v0) f1) (=> (= (f96 (f66 (f67 f69 ?v1) ?v0) ?v2) f1) (= (f96 ?v1 (f66 (f67 f88 ?v2) ?v0)) f1)))))
(assert (forall ((?v0 S16) (?v1 S16) (?v2 S16)) (=> (= (f105 f92 ?v0) f1) (=> (= (f96 ?v1 (f66 (f67 f69 ?v2) ?v0)) f1) (= (f96 (f66 (f67 f88 ?v1) ?v0) ?v2) f1)))))
(assert (forall ((?v0 S16) (?v1 S16) (?v2 S16)) (=> (= (f105 f92 ?v0) f1) (= (= (f96 (f66 (f67 f88 ?v1) ?v0) ?v2) f1) (= (f96 ?v1 (f66 (f67 f69 ?v2) ?v0)) f1)))))
(assert (forall ((?v0 S16) (?v1 S16) (?v2 S16)) (=> (= (f105 f92 ?v0) f1) (= (= (f96 ?v1 (f66 (f67 f88 ?v2) ?v0)) f1) (= (f96 (f66 (f67 f69 ?v1) ?v0) ?v2) f1)))))
(assert (forall ((?v0 S16) (?v1 S16) (?v2 S16)) (let ((?v_0 (f66 (f67 f69 ?v2) ?v1))) (= (= (f96 (f66 (f67 f88 ?v0) ?v1) ?v2) f1) (ite (= (f105 f92 ?v1) f1) (= (f96 ?v0 ?v_0) f1) (ite (= (f105 ?v1 f92) f1) (= (f96 ?v_0 ?v0) f1) (= (f96 f92 ?v2) f1)))))))
(assert (forall ((?v0 S16) (?v1 S16) (?v2 S16)) (let ((?v_0 (f66 (f67 f69 ?v0) ?v2))) (= (= (f96 ?v0 (f66 (f67 f88 ?v1) ?v2)) f1) (ite (= (f105 f92 ?v2) f1) (= (f96 ?v_0 ?v1) f1) (ite (= (f105 ?v2 f92) f1) (= (f96 ?v1 ?v_0) f1) (= (f96 ?v0 f92) f1)))))))
(assert (forall ((?v0 S25) (?v1 S2) (?v2 S25)) (=> (= (f44 (f80 f81 ?v0) ?v1) (f44 (f80 f81 ?v2) ?v1)) (=> (= (f99 f93 ?v0) f1) (=> (= (f99 f93 ?v2) f1) (=> (= (f86 f23 ?v1) f1) (= ?v0 ?v2)))))))
(assert (forall ((?v0 S2) (?v1 S2) (?v2 S2)) (=> (= (f17 (f18 f89 ?v0) ?v1) (f17 (f18 f89 ?v2) ?v1)) (=> (= (f13 f23 ?v0) f1) (=> (= (f13 f23 ?v2) f1) (=> (= (f86 f23 ?v1) f1) (= ?v0 ?v2)))))))
(assert (forall ((?v0 S16) (?v1 S2) (?v2 S16)) (=> (= (f32 (f70 f71 ?v0) ?v1) (f32 (f70 f71 ?v2) ?v1)) (=> (= (f96 f92 ?v0) f1) (=> (= (f96 f92 ?v2) f1) (=> (= (f86 f23 ?v1) f1) (= ?v0 ?v2)))))))
(assert (forall ((?v0 S15) (?v1 S2) (?v2 S2) (?v3 S2)) (= (f36 (f37 f38 ?v0) (f22 (f17 (f18 f31 ?v1) ?v2) (f17 (f18 f31 ?v3) ?v2))) (f36 (f37 f38 (f33 (f34 f52 ?v0) ?v2)) (f22 ?v1 ?v3)))))
(assert (forall ((?v0 S3) (?v1 S2) (?v2 S2) (?v3 S2)) (= (f8 (f9 f10 ?v0) (f22 (f17 (f18 f31 ?v1) ?v2) (f17 (f18 f31 ?v3) ?v2))) (f8 (f9 f10 (f27 (f28 f51 ?v0) ?v2)) (f22 ?v1 ?v3)))))
(assert (forall ((?v0 S24) (?v1 S2) (?v2 S2) (?v3 S2)) (= (f48 (f49 f50 ?v0) (f22 (f17 (f18 f31 ?v1) ?v2) (f17 (f18 f31 ?v3) ?v2))) (f48 (f49 f50 (f45 (f46 f54 ?v0) ?v2)) (f22 ?v1 ?v3)))))
(assert (forall ((?v0 S11) (?v1 S2) (?v2 S2) (?v3 S2)) (= (f41 (f42 f43 ?v0) (f22 (f17 (f18 f31 ?v1) ?v2) (f17 (f18 f31 ?v3) ?v2))) (f41 (f42 f43 (f18 (f39 f53 ?v0) ?v2)) (f22 ?v1 ?v3)))))
(check-sat)
(exit)
